61
120
84	4
83	9
82	7
81	4
80	14
79	9
78	8
77	14
76	9
75	10
74	8
73	9
72	8
71	6
70	8
69	7
68	12
67	9
66	3
65	9
64	7
63	6
62	5
61	9
60	4
59	5
58	4
57	9
56	13
55	7
54	12
53	5
52	11
51	9
50	8
49	5
48	13
47	9
46	6
45	6
44	10
43	8
42	2
41	5
40	12
39	8
38	11
37	10
36	10
35	15
34	9
33	10
32	8
31	12
30	8
29	8
28	7
27	3
26	8
25	9
24	7
